unsat
(define-fun f ((x (_ BitVec 32)) (y (_ BitVec 32))) (_ BitVec 32) (bvsub (bvor x y) (bvlshr (bvxor x y) #b00000000000000000000000000000001)))
96.95user 1.14system 1:38.10elapsed 99%CPU (0avgtext+0avgdata 1296880maxresident)k
0inputs+8outputs (0major+340412minor)pagefaults 0swaps
